
Gurobi 8.1.1 (mac64, Python) logging started Sun Oct 13 12:02:31 2019

Academic license - for non-commercial use only
Optimize a model with 3 rows, 3 columns and 7 nonzeros
Coefficient statistics:
  Matrix range     [1e+00, 2e+01]
  Objective range  [4e+02, 6e+02]
  Bounds range     [0e+00, 0e+00]
  RHS range        [8e+00, 2e+02]
Presolve removed 1 rows and 0 columns
Presolve time: 0.00s
Presolved: 2 rows, 3 columns, 6 nonzeros

Iteration    Objective       Primal Inf.    Dual Inf.      Time
       0    5.4000000e+03   1.011650e+01   0.000000e+00      0s
       2    5.1428571e+03   0.000000e+00   0.000000e+00      0s

Solved in 2 iterations and 0.00 seconds
Optimal objective  5.142857143e+03

Gurobi 8.1.1 (mac64, Python) logging started Sun Oct 13 12:04:29 2019

Academic license - for non-commercial use only
Optimize a model with 3 rows, 3 columns and 7 nonzeros
Coefficient statistics:
  Matrix range     [1e+00, 2e+01]
  Objective range  [4e+02, 6e+02]
  Bounds range     [0e+00, 0e+00]
  RHS range        [8e+00, 2e+02]
Presolve removed 1 rows and 0 columns
Presolve time: 0.00s
Presolved: 2 rows, 3 columns, 6 nonzeros

Iteration    Objective       Primal Inf.    Dual Inf.      Time
       0    5.4000000e+03   1.011650e+01   0.000000e+00      0s
       2    5.1428571e+03   0.000000e+00   0.000000e+00      0s

Solved in 2 iterations and 0.00 seconds
Optimal objective  5.142857143e+03

Gurobi 8.1.1 (mac64, Python) logging started Sun Oct 13 12:04:41 2019

Academic license - for non-commercial use only
Optimize a model with 3 rows, 3 columns and 7 nonzeros
Coefficient statistics:
  Matrix range     [1e+00, 2e+01]
  Objective range  [4e+02, 6e+02]
  Bounds range     [0e+00, 0e+00]
  RHS range        [8e+00, 2e+02]
Presolve removed 1 rows and 0 columns
Presolve time: 0.00s
Presolved: 2 rows, 3 columns, 6 nonzeros

Iteration    Objective       Primal Inf.    Dual Inf.      Time
       0    5.4000000e+03   1.011650e+01   0.000000e+00      0s
       2    5.1428571e+03   0.000000e+00   0.000000e+00      0s

Solved in 2 iterations and 0.00 seconds
Optimal objective  5.142857143e+03

Gurobi 8.1.1 (mac64, Python) logging started Sun Oct 13 12:05:09 2019

Academic license - for non-commercial use only
Optimize a model with 3 rows, 3 columns and 7 nonzeros
Coefficient statistics:
  Matrix range     [1e+00, 2e+01]
  Objective range  [4e+02, 6e+02]
  Bounds range     [0e+00, 0e+00]
  RHS range        [8e+00, 2e+02]
Presolve removed 1 rows and 0 columns
Presolve time: 0.00s
Presolved: 2 rows, 3 columns, 6 nonzeros

Iteration    Objective       Primal Inf.    Dual Inf.      Time
       0    5.4000000e+03   1.011650e+01   0.000000e+00      0s
       2    5.1428571e+03   0.000000e+00   0.000000e+00      0s

Solved in 2 iterations and 0.00 seconds
Optimal objective  5.142857143e+03

Gurobi 8.1.1 (mac64, Python) logging started Sun Oct 13 12:06:03 2019

Academic license - for non-commercial use only
Optimize a model with 3 rows, 3 columns and 7 nonzeros
Coefficient statistics:
  Matrix range     [1e+00, 2e+01]
  Objective range  [4e+02, 6e+02]
  Bounds range     [0e+00, 0e+00]
  RHS range        [8e+00, 2e+02]
Presolve removed 1 rows and 0 columns
Presolve time: 0.00s
Presolved: 2 rows, 3 columns, 6 nonzeros

Iteration    Objective       Primal Inf.    Dual Inf.      Time
       0    5.4000000e+03   1.011650e+01   0.000000e+00      0s
       2    5.1428571e+03   0.000000e+00   0.000000e+00      0s

Solved in 2 iterations and 0.00 seconds
Optimal objective  5.142857143e+03

Gurobi 8.1.1 (mac64, Python) logging started Sun Oct 13 12:12:24 2019

Academic license - for non-commercial use only
Optimize a model with 4 rows, 2 columns and 7 nonzeros
Coefficient statistics:
  Matrix range     [1e+00, 6e+00]
  Objective range  [4e+00, 5e+00]
  Bounds range     [0e+00, 0e+00]
  RHS range        [1e+00, 2e+01]
Presolve removed 1 rows and 0 columns
Presolve time: 0.00s
Presolved: 3 rows, 2 columns, 6 nonzeros

Iteration    Objective       Primal Inf.    Dual Inf.      Time
       0    2.4000000e+01   1.200000e+01   0.000000e+00      0s
       3    2.1000000e+01   0.000000e+00   0.000000e+00      0s

Solved in 3 iterations and 0.00 seconds
Optimal objective  2.100000000e+01

Gurobi 8.1.1 (mac64, Python) logging started Sun Oct 13 12:12:29 2019

Academic license - for non-commercial use only
Optimize a model with 4 rows, 2 columns and 7 nonzeros
Coefficient statistics:
  Matrix range     [1e+00, 6e+00]
  Objective range  [4e+00, 5e+00]
  Bounds range     [0e+00, 0e+00]
  RHS range        [1e+00, 2e+01]
Presolve removed 1 rows and 0 columns
Presolve time: 0.00s
Presolved: 3 rows, 2 columns, 6 nonzeros

Iteration    Objective       Primal Inf.    Dual Inf.      Time
       0    2.4000000e+01   1.200000e+01   0.000000e+00      0s
       3    2.1000000e+01   0.000000e+00   0.000000e+00      0s

Solved in 3 iterations and 0.00 seconds
Optimal objective  2.100000000e+01

Gurobi 8.1.1 (mac64, Python) logging started Sun Oct 13 12:13:26 2019

Academic license - for non-commercial use only
Optimize a model with 4 rows, 2 columns and 7 nonzeros
Coefficient statistics:
  Matrix range     [1e+00, 6e+00]
  Objective range  [4e+00, 5e+00]
  Bounds range     [0e+00, 0e+00]
  RHS range        [1e+00, 2e+01]
Presolve removed 1 rows and 0 columns
Presolve time: 0.00s
Presolved: 3 rows, 2 columns, 6 nonzeros

Iteration    Objective       Primal Inf.    Dual Inf.      Time
       0    2.5000000e+01   1.275000e+01   0.000000e+00      0s
       3    2.1750000e+01   0.000000e+00   0.000000e+00      0s

Solved in 3 iterations and 0.00 seconds
Optimal objective  2.175000000e+01

Gurobi 8.1.1 (mac64, Python) logging started Sun Oct 13 12:14:23 2019

Academic license - for non-commercial use only
Optimize a model with 4 rows, 2 columns and 7 nonzeros
Coefficient statistics:
  Matrix range     [1e+00, 6e+00]
  Objective range  [4e+00, 5e+00]
  Bounds range     [0e+00, 0e+00]
  RHS range        [1e+00, 2e+01]
Presolve removed 1 rows and 0 columns
Presolve time: 0.00s
Presolved: 3 rows, 2 columns, 6 nonzeros

Iteration    Objective       Primal Inf.    Dual Inf.      Time
       0    2.5000000e+01   1.225000e+01   0.000000e+00      0s
       2    2.2166667e+01   0.000000e+00   0.000000e+00      0s

Solved in 2 iterations and 0.00 seconds
Optimal objective  2.216666667e+01

Gurobi 8.1.1 (mac64, Python) logging started Sun Oct 13 12:14:39 2019

Academic license - for non-commercial use only
Optimize a model with 4 rows, 2 columns and 7 nonzeros
Coefficient statistics:
  Matrix range     [1e+00, 6e+00]
  Objective range  [4e+00, 5e+00]
  Bounds range     [0e+00, 0e+00]
  RHS range        [1e+00, 2e+01]
Presolve removed 1 rows and 0 columns
Presolve time: 0.00s
Presolved: 3 rows, 2 columns, 6 nonzeros

Iteration    Objective       Primal Inf.    Dual Inf.      Time
       0    2.4000000e+01   1.200000e+01   0.000000e+00      0s
       3    2.1000000e+01   0.000000e+00   0.000000e+00      0s

Solved in 3 iterations and 0.00 seconds
Optimal objective  2.100000000e+01

Gurobi 8.1.1 (mac64, Python) logging started Sun Oct 13 12:14:46 2019

Academic license - for non-commercial use only
Optimize a model with 4 rows, 2 columns and 7 nonzeros
Coefficient statistics:
  Matrix range     [1e+00, 6e+00]
  Objective range  [4e+00, 5e+00]
  Bounds range     [0e+00, 0e+00]
  RHS range        [1e+00, 2e+01]
Presolve removed 1 rows and 0 columns
Presolve time: 0.00s
Presolved: 3 rows, 2 columns, 6 nonzeros

Iteration    Objective       Primal Inf.    Dual Inf.      Time
       0    2.4000000e+01   1.150000e+01   0.000000e+00      0s
       2    2.1333333e+01   0.000000e+00   0.000000e+00      0s

Solved in 2 iterations and 0.00 seconds
Optimal objective  2.133333333e+01

Gurobi 8.1.1 (mac64, Python) logging started Sun Oct 13 12:15:09 2019

Academic license - for non-commercial use only
Optimize a model with 4 rows, 2 columns and 7 nonzeros
Coefficient statistics:
  Matrix range     [1e+00, 6e+00]
  Objective range  [4e+00, 5e+00]
  Bounds range     [0e+00, 0e+00]
  RHS range        [1e+00, 2e+01]
Presolve removed 1 rows and 0 columns
Presolve time: 0.00s
Presolved: 3 rows, 2 columns, 6 nonzeros

Iteration    Objective       Primal Inf.    Dual Inf.      Time
       0    2.4000000e+01   1.200000e+01   0.000000e+00      0s
       3    2.1000000e+01   0.000000e+00   0.000000e+00      0s

Solved in 3 iterations and 0.00 seconds
Optimal objective  2.100000000e+01

Gurobi 8.1.1 (mac64, Python) logging started Sun Oct 13 12:16:24 2019

Academic license - for non-commercial use only
Optimize a model with 4 rows, 2 columns and 7 nonzeros
Coefficient statistics:
  Matrix range     [1e+00, 6e+00]
  Objective range  [4e+00, 5e+00]
  Bounds range     [0e+00, 0e+00]
  RHS range        [1e+00, 3e+01]
Presolve removed 1 rows and 0 columns
Presolve time: 0.00s
Presolved: 3 rows, 2 columns, 6 nonzeros

Iteration    Objective       Primal Inf.    Dual Inf.      Time
       0    2.6000000e+01   1.350000e+01   0.000000e+00      0s
       3    2.2500000e+01   0.000000e+00   0.000000e+00      0s

Solved in 3 iterations and 0.00 seconds
Optimal objective  2.250000000e+01

Gurobi 8.1.1 (mac64, Python) logging started Sun Oct 13 12:16:52 2019

Academic license - for non-commercial use only
Optimize a model with 4 rows, 2 columns and 7 nonzeros
Coefficient statistics:
  Matrix range     [1e+00, 6e+00]
  Objective range  [4e+00, 5e+00]
  Bounds range     [0e+00, 0e+00]
  RHS range        [1e+00, 2e+01]
Presolve removed 1 rows and 0 columns
Presolve time: 0.00s
Presolved: 3 rows, 2 columns, 6 nonzeros

Iteration    Objective       Primal Inf.    Dual Inf.      Time
       0    2.4000000e+01   1.100000e+01   0.000000e+00      0s
       2    2.1333333e+01   0.000000e+00   0.000000e+00      0s

Solved in 2 iterations and 0.00 seconds
Optimal objective  2.133333333e+01

Gurobi 8.1.1 (mac64, Python) logging started Sun Oct 13 12:16:58 2019

Academic license - for non-commercial use only
Optimize a model with 4 rows, 2 columns and 7 nonzeros
Coefficient statistics:
  Matrix range     [1e+00, 6e+00]
  Objective range  [4e+00, 5e+00]
  Bounds range     [0e+00, 0e+00]
  RHS range        [1e+00, 2e+01]
Presolve removed 1 rows and 0 columns
Presolve time: 0.00s
Presolved: 3 rows, 2 columns, 6 nonzeros

Iteration    Objective       Primal Inf.    Dual Inf.      Time
       0    2.4000000e+01   1.200000e+01   0.000000e+00      0s
       3    2.1000000e+01   0.000000e+00   0.000000e+00      0s

Solved in 3 iterations and 0.00 seconds
Optimal objective  2.100000000e+01

Gurobi 8.1.1 (mac64, Python) logging started Sun Oct 13 12:17:08 2019

Academic license - for non-commercial use only
Optimize a model with 4 rows, 2 columns and 7 nonzeros
Coefficient statistics:
  Matrix range     [1e+00, 6e+00]
  Objective range  [4e+00, 5e+00]
  Bounds range     [0e+00, 0e+00]
  RHS range        [2e+00, 2e+01]
Presolve removed 2 rows and 0 columns
Presolve time: 0.00s
Presolved: 2 rows, 2 columns, 4 nonzeros

Iteration    Objective       Primal Inf.    Dual Inf.      Time
       0    2.4000000e+01   7.000000e+00   0.000000e+00      0s
       2    2.1000000e+01   0.000000e+00   0.000000e+00      0s

Solved in 2 iterations and 0.00 seconds
Optimal objective  2.100000000e+01

Gurobi 8.1.1 (mac64, Python) logging started Sun Oct 13 12:17:16 2019

Academic license - for non-commercial use only
Optimize a model with 4 rows, 2 columns and 7 nonzeros
Coefficient statistics:
  Matrix range     [1e+00, 6e+00]
  Objective range  [4e+00, 5e+00]
  Bounds range     [0e+00, 0e+00]
  RHS range        [2e+00, 2e+01]
Presolve removed 2 rows and 0 columns
Presolve time: 0.00s
Presolved: 2 rows, 2 columns, 4 nonzeros

Iteration    Objective       Primal Inf.    Dual Inf.      Time
       0    2.4000000e+01   7.000000e+00   0.000000e+00      0s
       2    2.1000000e+01   0.000000e+00   0.000000e+00      0s

Solved in 2 iterations and 0.00 seconds
Optimal objective  2.100000000e+01

Gurobi 8.1.1 (mac64, Python) logging started Sun Oct 13 12:17:21 2019

Academic license - for non-commercial use only
Optimize a model with 4 rows, 2 columns and 7 nonzeros
Coefficient statistics:
  Matrix range     [1e+00, 6e+00]
  Objective range  [4e+00, 5e+00]
  Bounds range     [0e+00, 0e+00]
  RHS range        [1e+00, 2e+01]
Presolve removed 1 rows and 0 columns
Presolve time: 0.00s
Presolved: 3 rows, 2 columns, 6 nonzeros

Iteration    Objective       Primal Inf.    Dual Inf.      Time
       0    2.4000000e+01   1.200000e+01   0.000000e+00      0s
       3    2.1000000e+01   0.000000e+00   0.000000e+00      0s

Solved in 3 iterations and 0.00 seconds
Optimal objective  2.100000000e+01

Gurobi 8.1.1 (mac64, Python) logging started Thu Oct 17 02:10:09 2019

Academic license - for non-commercial use only
Optimize a model with 9 rows, 19 columns and 44 nonzeros
Coefficient statistics:
  Matrix range     [1e+00, 1e+03]
  Objective range  [1e+00, 7e+01]
  Bounds range     [0e+00, 0e+00]
  RHS range        [1e+00, 8e+01]
Presolve removed 3 rows and 7 columns
Presolve time: 0.01s
Presolved: 6 rows, 12 columns, 30 nonzeros

Iteration    Objective       Primal Inf.    Dual Inf.      Time
       0    5.0000000e+01   1.562500e+01   0.000000e+00      0s
       5    5.7800000e+02   0.000000e+00   0.000000e+00      0s

Solved in 5 iterations and 0.01 seconds
Optimal objective  5.780000000e+02

Gurobi 8.1.1 (mac64, Python) logging started Thu Oct 17 02:18:09 2019

Academic license - for non-commercial use only
Optimize a model with 11 rows, 19 columns and 44 nonzeros
Coefficient statistics:
  Matrix range     [1e+00, 1e+03]
  Objective range  [1e+00, 7e+01]
  Bounds range     [0e+00, 0e+00]
  RHS range        [1e+00, 8e+01]
Presolve removed 3 rows and 3 columns
Presolve time: 0.00s
Presolved: 8 rows, 16 columns, 38 nonzeros

Iteration    Objective       Primal Inf.    Dual Inf.      Time
       0    5.0000000e+01   1.562500e+01   0.000000e+00      0s
       9    6.2300000e+02   0.000000e+00   0.000000e+00      0s

Solved in 9 iterations and 0.00 seconds
Optimal objective  6.230000000e+02

Gurobi 8.1.1 (mac64, Python) logging started Thu Oct 17 02:21:21 2019

Academic license - for non-commercial use only
Optimize a model with 11 rows, 19 columns and 44 nonzeros
Coefficient statistics:
  Matrix range     [1e+00, 1e+03]
  Objective range  [1e+00, 7e+01]
  Bounds range     [0e+00, 0e+00]
  RHS range        [1e+00, 8e+01]
Presolve removed 3 rows and 3 columns
Presolve time: 0.00s
Presolved: 8 rows, 16 columns, 38 nonzeros

Iteration    Objective       Primal Inf.    Dual Inf.      Time
       0    1.9428571e+02   2.188414e+01   0.000000e+00      0s
       9    6.2300000e+02   0.000000e+00   0.000000e+00      0s

Solved in 9 iterations and 0.00 seconds
Optimal objective  6.230000000e+02

Gurobi 8.1.1 (mac64, Python) logging started Wed Oct 23 00:15:19 2019

Academic license - for non-commercial use only
Optimize a model with 11 rows, 19 columns and 44 nonzeros
Coefficient statistics:
  Matrix range     [1e+00, 1e+03]
  Objective range  [1e+00, 7e+01]
  Bounds range     [0e+00, 0e+00]
  RHS range        [1e+00, 8e+01]
Presolve removed 3 rows and 3 columns
Presolve time: 0.00s
Presolved: 8 rows, 16 columns, 38 nonzeros

Iteration    Objective       Primal Inf.    Dual Inf.      Time
       0    5.0000000e+01   1.562500e+01   0.000000e+00      0s
       9    6.2300000e+02   0.000000e+00   0.000000e+00      0s

Solved in 9 iterations and 0.00 seconds
Optimal objective  6.230000000e+02

Gurobi 8.1.1 (mac64, Python) logging started Wed Oct 23 10:51:41 2019

Academic license - for non-commercial use only
Optimize a model with 11 rows, 19 columns and 44 nonzeros
Coefficient statistics:
  Matrix range     [1e+00, 1e+03]
  Objective range  [1e+00, 7e+01]
  Bounds range     [0e+00, 0e+00]
  RHS range        [1e+00, 8e+01]
Presolve removed 3 rows and 3 columns
Presolve time: 0.00s
Presolved: 8 rows, 16 columns, 38 nonzeros

Iteration    Objective       Primal Inf.    Dual Inf.      Time
       0    5.0000000e+01   1.562500e+01   0.000000e+00      0s
       9    6.2300000e+02   0.000000e+00   0.000000e+00      0s

Solved in 9 iterations and 0.00 seconds
Optimal objective  6.230000000e+02

Gurobi 8.1.1 (mac64, Python) logging started Thu Oct 24 11:51:02 2019

Academic license - for non-commercial use only
Optimize a model with 11 rows, 19 columns and 44 nonzeros
Coefficient statistics:
  Matrix range     [1e+00, 1e+03]
  Objective range  [1e+00, 7e+01]
  Bounds range     [0e+00, 0e+00]
  RHS range        [1e+00, 8e+01]
Presolve removed 3 rows and 3 columns
Presolve time: 0.00s
Presolved: 8 rows, 16 columns, 38 nonzeros

Iteration    Objective       Primal Inf.    Dual Inf.      Time
       0    5.0000000e+01   1.562500e+01   0.000000e+00      0s
       9    6.2300000e+02   0.000000e+00   0.000000e+00      0s

Solved in 9 iterations and 0.00 seconds
Optimal objective  6.230000000e+02

Gurobi 8.1.1 (mac64, Python) logging started Thu Oct 24 11:52:31 2019

Academic license - for non-commercial use only
Optimize a model with 4 rows, 2 columns and 7 nonzeros
Coefficient statistics:
  Matrix range     [1e+00, 6e+00]
  Objective range  [4e+00, 5e+00]
  Bounds range     [0e+00, 0e+00]
  RHS range        [1e+00, 2e+01]
Presolve removed 1 rows and 0 columns
Presolve time: 0.00s
Presolved: 3 rows, 2 columns, 6 nonzeros

Iteration    Objective       Primal Inf.    Dual Inf.      Time
       0    2.4000000e+01   1.200000e+01   0.000000e+00      0s
       3    2.1000000e+01   0.000000e+00   0.000000e+00      0s

Solved in 3 iterations and 0.00 seconds
Optimal objective  2.100000000e+01

Gurobi 8.1.1 (mac64, Python) logging started Thu Oct 24 11:53:23 2019

Academic license - for non-commercial use only
Optimize a model with 4 rows, 2 columns and 7 nonzeros
Coefficient statistics:
  Matrix range     [1e+00, 6e+00]
  Objective range  [4e+00, 5e+00]
  Bounds range     [0e+00, 0e+00]
  RHS range        [1e+00, 2e+01]
Presolve removed 1 rows and 0 columns
Presolve time: 0.00s
Presolved: 3 rows, 2 columns, 6 nonzeros

Iteration    Objective       Primal Inf.    Dual Inf.      Time
       0    2.4000000e+01   1.150000e+01   0.000000e+00      0s
       2    2.1333333e+01   0.000000e+00   0.000000e+00      0s

Solved in 2 iterations and 0.00 seconds
Optimal objective  2.133333333e+01

Gurobi 8.1.1 (mac64, Python) logging started Thu Oct 24 11:53:32 2019

Academic license - for non-commercial use only
Optimize a model with 4 rows, 2 columns and 7 nonzeros
Coefficient statistics:
  Matrix range     [1e+00, 6e+00]
  Objective range  [4e+00, 5e+00]
  Bounds range     [0e+00, 0e+00]
  RHS range        [1e+00, 2e+01]
Presolve removed 1 rows and 0 columns
Presolve time: 0.00s
Presolved: 3 rows, 2 columns, 6 nonzeros

Iteration    Objective       Primal Inf.    Dual Inf.      Time
       0    2.4000000e+01   1.200000e+01   0.000000e+00      0s
       3    2.1000000e+01   0.000000e+00   0.000000e+00      0s

Solved in 3 iterations and 0.00 seconds
Optimal objective  2.100000000e+01

Gurobi 8.1.1 (mac64, Python) logging started Thu Oct 24 11:53:46 2019

Academic license - for non-commercial use only
Optimize a model with 4 rows, 2 columns and 7 nonzeros
Coefficient statistics:
  Matrix range     [1e+00, 6e+00]
  Objective range  [4e+00, 5e+00]
  Bounds range     [0e+00, 0e+00]
  RHS range        [1e+00, 2e+01]
Presolve removed 1 rows and 0 columns
Presolve time: 0.00s
Presolved: 3 rows, 2 columns, 6 nonzeros

Iteration    Objective       Primal Inf.    Dual Inf.      Time
       0    2.5000000e+01   1.275000e+01   0.000000e+00      0s
       3    2.1750000e+01   0.000000e+00   0.000000e+00      0s

Solved in 3 iterations and 0.00 seconds
Optimal objective  2.175000000e+01

Gurobi 8.1.1 (mac64, Python) logging started Thu Oct 24 11:53:59 2019

Academic license - for non-commercial use only
Optimize a model with 4 rows, 2 columns and 7 nonzeros
Coefficient statistics:
  Matrix range     [1e+00, 6e+00]
  Objective range  [4e+00, 5e+00]
  Bounds range     [0e+00, 0e+00]
  RHS range        [1e+00, 2e+01]
Presolve removed 1 rows and 0 columns
Presolve time: 0.00s
Presolved: 3 rows, 2 columns, 6 nonzeros

Iteration    Objective       Primal Inf.    Dual Inf.      Time
       0    2.4000000e+01   1.200000e+01   0.000000e+00      0s
       3    2.1000000e+01   0.000000e+00   0.000000e+00      0s

Solved in 3 iterations and 0.00 seconds
Optimal objective  2.100000000e+01

Gurobi 8.1.1 (mac64, Python) logging started Thu Oct 24 11:54:03 2019

Academic license - for non-commercial use only
Optimize a model with 4 rows, 2 columns and 7 nonzeros
Coefficient statistics:
  Matrix range     [1e+00, 6e+00]
  Objective range  [4e+00, 5e+00]
  Bounds range     [0e+00, 0e+00]
  RHS range        [2e+00, 2e+01]
Presolve removed 2 rows and 0 columns
Presolve time: 0.00s
Presolved: 2 rows, 2 columns, 4 nonzeros

Iteration    Objective       Primal Inf.    Dual Inf.      Time
       0    2.4000000e+01   7.000000e+00   0.000000e+00      0s
       2    2.1000000e+01   0.000000e+00   0.000000e+00      0s

Solved in 2 iterations and 0.00 seconds
Optimal objective  2.100000000e+01

Gurobi 8.1.1 (mac64, Python) logging started Thu Oct 24 11:54:13 2019

Academic license - for non-commercial use only
Optimize a model with 4 rows, 2 columns and 7 nonzeros
Coefficient statistics:
  Matrix range     [1e+00, 6e+00]
  Objective range  [4e+00, 5e+00]
  Bounds range     [0e+00, 0e+00]
  RHS range        [1e+00, 2e+01]
Presolve removed 1 rows and 0 columns
Presolve time: 0.00s
Presolved: 3 rows, 2 columns, 6 nonzeros

Iteration    Objective       Primal Inf.    Dual Inf.      Time
       0    2.4000000e+01   1.100000e+01   0.000000e+00      0s
       2    2.1000000e+01   0.000000e+00   0.000000e+00      0s

Solved in 2 iterations and 0.00 seconds
Optimal objective  2.100000000e+01

Gurobi 8.1.1 (mac64, Python) logging started Thu Oct 24 11:54:28 2019

Academic license - for non-commercial use only
Optimize a model with 4 rows, 2 columns and 7 nonzeros
Coefficient statistics:
  Matrix range     [1e+00, 6e+00]
  Objective range  [4e+00, 5e+00]
  Bounds range     [0e+00, 0e+00]
  RHS range        [1e+00, 2e+01]
Presolve removed 1 rows and 0 columns
Presolve time: 0.00s
Presolved: 3 rows, 2 columns, 6 nonzeros

Iteration    Objective       Primal Inf.    Dual Inf.      Time
       0    2.5000000e+01   1.225000e+01   0.000000e+00      0s
       2    2.2166667e+01   0.000000e+00   0.000000e+00      0s

Solved in 2 iterations and 0.00 seconds
Optimal objective  2.216666667e+01

Gurobi 8.1.1 (mac64, Python) logging started Thu Oct 24 11:54:41 2019

Academic license - for non-commercial use only
Optimize a model with 4 rows, 2 columns and 7 nonzeros
Coefficient statistics:
  Matrix range     [1e+00, 6e+00]
  Objective range  [4e+00, 5e+00]
  Bounds range     [0e+00, 0e+00]
  RHS range        [1e+00, 2e+01]
Presolve removed 1 rows and 0 columns
Presolve time: 0.00s
Presolved: 3 rows, 2 columns, 6 nonzeros

Iteration    Objective       Primal Inf.    Dual Inf.      Time
       0    2.4000000e+01   1.200000e+01   0.000000e+00      0s
       3    2.1000000e+01   0.000000e+00   0.000000e+00      0s

Solved in 3 iterations and 0.00 seconds
Optimal objective  2.100000000e+01

Gurobi 8.1.1 (mac64, Python) logging started Thu Oct 24 11:54:56 2019

Academic license - for non-commercial use only
Optimize a model with 4 rows, 2 columns and 7 nonzeros
Coefficient statistics:
  Matrix range     [1e+00, 6e+00]
  Objective range  [4e+00, 5e+00]
  Bounds range     [0e+00, 0e+00]
  RHS range        [1e+00, 2e+01]
Presolve removed 1 rows and 0 columns
Presolve time: 0.00s
Presolved: 3 rows, 2 columns, 6 nonzeros

Iteration    Objective       Primal Inf.    Dual Inf.      Time
       0    2.5000000e+01   1.275000e+01   0.000000e+00      0s
       3    2.1750000e+01   0.000000e+00   0.000000e+00      0s

Solved in 3 iterations and 0.00 seconds
Optimal objective  2.175000000e+01

Gurobi 8.1.1 (mac64, Python) logging started Thu Oct 24 11:55:04 2019

Academic license - for non-commercial use only
Optimize a model with 4 rows, 2 columns and 7 nonzeros
Coefficient statistics:
  Matrix range     [1e+00, 6e+00]
  Objective range  [4e+00, 5e+00]
  Bounds range     [0e+00, 0e+00]
  RHS range        [1e+00, 2e+01]
Presolve removed 1 rows and 0 columns
Presolve time: 0.00s
Presolved: 3 rows, 2 columns, 6 nonzeros

Iteration    Objective       Primal Inf.    Dual Inf.      Time
       0    2.4000000e+01   1.200000e+01   0.000000e+00      0s
       3    2.1000000e+01   0.000000e+00   0.000000e+00      0s

Solved in 3 iterations and 0.00 seconds
Optimal objective  2.100000000e+01
